Instance name : lr202
Authors       : Geir Hasle, Oddvar Kloster
Date          : 08.03.2003 23:42:04
Reference     : Chapter in G. Hasle, K-A Lie, E. Quak (eds): Geometric Modelling, Numerical Simulation, and Optimization. ISBN 978-3-540-68782-5, Springer 2007.
Solution
Route  1 : 83 45 48 47 36 63 64 11 19 62 88 30 71 78 79 81 9 51 90 49 46 82 7 10 20 32 66 35 68 77 1 70 31 52
Route  2 : 50 33 65 34 29 3 28 27 69 76 67 73 40 53 87 57 41 22 74 72 21 13 37 100 93 17 60 89
Route  3 : 96 59 92 98 85 91 14 42 2 75 39 23 15 38 44 16 61 99 18 8 84 86 5 6 94 95 97 43 56 4 54 55 25 24 80 12 26 58
